50
0 1 0.65 0.24
0 2 0.69 0.16
0 3 0.84 0.18
0 4 0.63 0.24
0 5 0.41 0.09
0 6 0.68 0.22
0 7 0.44 0.14
0 8 0.46 0.08
0 9 0.61 0.18
0 10 0.66 0.11
0 11 0.73 0.1
0 12 0.56 0.24
0 13 0.82 0.21
0 14 0.44 0.17
0 15 0.35 0.15
0 16 0.8 0.22
0 17 0.5 0.17
0 18 0.6 0.16
0 19 0.81 0.22
0 20 0.72 0.22
0 21 0.5 0.22
0 22 0.49 0.27
0 23 0.73 0.26
0 24 0.42 0.2
0 25 0.64 0.12
0 26 0.39 0.12
0 27 0.83 0.23
0 28 0.68 0.19
0 29 0.58 0.17
0 30 0.7 0.18
0 31 0.47 0.26
0 32 0.56 0.23
0 33 0.69 0.2
0 34 0.66 0.33
0 35 0.65 0.17
0 36 0.64 0.21
0 37 0.48 0.21
0 38 0.77 0.27
0 39 0.58 0.23
0 40 0.5 0.18
0 41 0.64 0.21
0 42 0.76 0.08
0 43 0.74 0.22
0 44 0.6 0.21
0 45 0.48 0.22
0 46 0.78 0.2
0 47 0.6 0.16
0 48 0.67 0.24
0 49 0.64 0.29
1 2 0.64 0.24
1 3 0.62 0.24
1 4 0.41 0.33
1 5 0.75 0.24
1 6 0.66 0.05
1 7 0.5 0.13
1 8 0.58 0.27
1 9 0.64 0.33
1 10 0.42 0.24
1 11 0.47 0.26
1 12 0.53 0.2
1 13 0.53 0.18
1 14 0.59 0.27
1 15 0.3 0.19
1 16 0.39 0.16
1 17 0.61 0.24
1 18 0.65 0.24
1 19 0.5 0.2
1 20 0.37 0.02
1 21 0.63 0.19
1 22 0.66 0.26
1 23 0.58 0.25
1 24 0.5 0.19
1 25 0.56 0.25
1 26 0.56 0.2
1 27 0.44 0.18
1 28 0.18 0.15
1 29 0.34 0.27
1 30 0.51 0.17
1 31 0.58 0.06
1 32 0.44 0.2
1 33 0.46 0.23
1 34 0.52 0.28
1 35 0.61 0.2
1 36 0.34 0.22
1 37 0.52 0.29
1 38 0.58 0.23
1 39 0.35 0.2
1 40 0.32 0.12
1 41 0.59 0.21
1 42 0.86 0.16
1 43 0.69 0.19
1 44 0.54 0.12
1 45 0.66 0.21
1 46 0.35 0.24
1 47 0.59 0.15
1 48 0.58 0.2
1 49 0.68 0.22
2 3 0.37 0.06
2 4 0.63 0.38
2 5 0.47 0.25
2 6 0.56 0.22
2 7 0.7 0.22
2 8 0.37 0.18
2 9 0.63 0.22
2 10 0.54 0.17
2 11 0.45 0.14
2 12 0.6 0.21
2 13 0.64 0.19
2 14 0.77 0.19
2 15 0.52 0.15
2 16 0.48 0.27
2 17 0.62 0.11
2 18 0.56 0.14
2 19 0.4 0.1
2 20 0.47 0.22
2 21 0.68 0.23
2 22 0.72 0.18
2 23 0.44 0.2
2 24 0.32 0.19
2 25 0.45 0.28
2 26 0.48 0.18
2 27 0.72 0.24
2 28 0.46 0.19
2 29 0.58 0.32
2 30 0.52 0.25
2 31 0.5 0.24
2 32 0.48 0.23
2 33 0.6 0.23
2 34 0.77 0.29
2 35 0.65 0.17
2 36 0.67 0.29
2 37 0.54 0.27
2 38 0.4 0.22
2 39 0.74 0.17
2 40 0.46 0.24
2 41 0.46 0.18
2 42 0.54 0.08
2 43 0.46 0.16
2 44 0.24 0.15
2 45 0.21 0.14
2 46 0.57 0.19
2 47 0.57 0.2
2 48 0.48 0.24
2 49 0.58 0.2
3 4 0.42 0.32
3 5 0.58 0.25
3 6 0.67 0.24
3 7 0.54 0.16
3 8 0.64 0.21
3 9 0.54 0.16
3 10 0.61 0.18
3 11 0.5 0.08
3 12 0.29 0.15
3 13 0.35 0.13
3 14 0.4 0.25
3 15 0.8 0.21
3 16 0.33 0.21
3 17 0.4 0.17
3 18 0.56 0.08
3 19 0.7 0.04
3 20 0.59 0.22
3 21 0.62 0.17
3 22 0.56 0.12
3 23 0.46 0.2
3 24 0.66 0.22
3 25 0.56 0.23
3 26 0.72 0.12
3 27 0.7 0.19
3 28 0.7 0.2
3 29 0.65 0.26
3 30 0.5 0.19
3 31 0.48 0.18
3 32 0.48 0.17
3 33 0.56 0.28
3 34 0.65 0.23
3 35 0.65 0.2
3 36 0.3 0.26
3 37 0.55 0.22
3 38 0.42 0.22
3 39 0.64 0.11
3 40 0.66 0.18
3 41 0.55 0.12
3 42 0.66 0.14
3 43 0.65 0.1
3 44 0.61 0.17
3 45 0.58 0.2
3 46 0.38 0.13
3 47 0.66 0.14
3 48 0.48 0.19
3 49 0.46 0.14
4 5 0.66 0.33
4 6 0.68 0.28
4 7 0.58 0.23
4 8 0.26 0.2
4 9 0.7 0.33
4 10 0.77 0.23
4 11 0.4 0.32
4 12 0.71 0.27
4 13 0.77 0.28
4 14 0.72 0.32
4 15 0.71 0.26
4 16 0.75 0.26
4 17 0.62 0.29
4 18 0.6 0.24
4 19 0.54 0.36
4 20 0.66 0.35
4 21 0.58 0.31
4 22 0.85 0.33
4 23 0.72 0.28
4 24 0.52 0.29
4 25 0.7 0.12
4 26 0.66 0.28
4 27 0.61 0.35
4 28 0.59 0.22
4 29 0.66 0.14
4 30 0.5 0.33
4 31 0.54 0.39
4 32 0.72 0.28
4 33 0.6 0.32
4 34 0.46 0.24
4 35 0.58 0.34
4 36 0.6 0.44
4 37 0.49 0.28
4 38 0.72 0.3
4 39 0.52 0.34
4 40 0.63 0.27
4 41 0.51 0.31
4 42 0.48 0.32
4 43 0.41 0.33
4 44 0.83 0.35
4 45 0.84 0.31
4 46 0.51 0.22
4 47 0.56 0.25
4 48 0.7 0.35
4 49 0.82 0.4
5 6 0.34 0.19
5 7 0.56 0.22
5 8 0.4 0.17
5 9 0.72 0.14
5 10 0.44 0.19
5 11 0.58 0.19
5 12 0.53 0.25
5 13 0.7 0.24
5 14 0.5 0.08
5 15 0.62 0.24
5 16 0.71 0.22
5 17 0.7 0.16
5 18 0.66 0.2
5 19 0.42 0.21
5 20 0.61 0.24
5 21 0.42 0.24
5 22 0.68 0.27
5 23 0.58 0.17
5 24 0.52 0.28
5 25 0.63 0.21
5 26 0.51 0.21
5 27 0.42 0.31
5 28 0.68 0.2
5 29 0.46 0.19
5 30 0.38 0.09
5 31 0.34 0.2
5 32 0.41 0.2
5 33 0.59 0.18
5 34 0.4 0.26
5 35 0.54 0.19
5 36 0.54 0.12
5 37 0.52 0.22
5 38 0.62 0.19
5 39 0.4 0.14
5 40 0.45 0.18
5 41 0.53 0.17
5 42 0.83 0.17
5 43 0.63 0.15
5 44 0.23 0.12
5 45 0.59 0.27
5 46 0.51 0.25
5 47 0.59 0.24
5 48 0.66 0.26
5 49 0.77 0.2
6 7 0.27 0.08
6 8 0.58 0.26
6 9 0.64 0.28
6 10 0.51 0.23
6 11 0.45 0.21
6 12 0.38 0.22
6 13 0.58 0.23
6 14 0.52 0.27
6 15 0.41 0.24
6 16 0.56 0.11
6 17 0.72 0.21
6 18 0.66 0.23
6 19 0.68 0.2
6 20 0.76 0.07
6 21 0.52 0.14
6 22 0.83 0.31
6 23 0.58 0.26
6 24 0.61 0.14
6 25 0.63 0.25
6 26 0.57 0.22
6 27 0.56 0.23
6 28 0.48 0.2
6 29 0.68 0.22
6 30 0.58 0.22
6 31 0.67 0.11
6 32 0.59 0.15
6 33 0.52 0.18
6 34 0.66 0.23
6 35 0.42 0.21
6 36 0.75 0.21
6 37 0.62 0.24
6 38 0.62 0.27
6 39 0.74 0.15
6 40 0.68 0.07
6 41 0.28 0.16
6 42 0.72 0.21
6 43 0.38 0.14
6 44 0.52 0.07
6 45 0.71 0.16
6 46 0.38 0.27
6 47 0.56 0.1
6 48 0.64 0.15
6 49 0.51 0.21
7 8 0.55 0.22
7 9 0.57 0.24
7 10 0.72 0.2
7 11 0.52 0.18
7 12 0.6 0.14
7 13 0.46 0.19
7 14 0.43 0.22
7 15 0.57 0.23
7 16 0.75 0.08
7 17 0.56 0.18
7 18 0.6 0.22
7 19 0.63 0.18
7 20 0.51 0.15
7 21 0.52 0.08
7 22 0.56 0.26
7 23 0.5 0.18
7 24 0.54 0.06
7 25 0.36 0.22
7 26 0.78 0.18
7 27 0.64 0.18
7 28 0.68 0.19
7 29 0.68 0.14
7 30 0.31 0.18
7 31 0.4 0.18
7 32 0.47 0.12
7 33 0.79 0.17
7 34 0.79 0.2
7 35 0.63 0.16
7 36 0.58 0.22
7 37 0.66 0.16
7 38 0.54 0.2
7 39 0.62 0.18
7 40 0.66 0.04
7 41 0.47 0.2
7 42 0.56 0.22
7 43 0.57 0.19
7 44 0.64 0.15
7 45 0.58 0.08
7 46 0.54 0.19
7 47 0.29 0.02
7 48 0.79 0.12
7 49 0.62 0.24
8 9 0.74 0.21
8 10 0.58 0.03
8 11 0.63 0.18
8 12 0.76 0.22
8 13 0.54 0.13
8 14 0.64 0.17
8 15 0.47 0.2
8 16 0.63 0.15
8 17 0.73 0.09
8 18 0.62 0.13
8 19 0.74 0.25
8 20 0.59 0.29
8 21 0.45 0.26
8 22 0.59 0.24
8 23 0.62 0.2
8 24 0.42 0.28
8 25 0.54 0.2
8 26 0.48 0.17
8 27 0.44 0.15
8 28 0.4 0.24
8 29 0.54 0.23
8 30 0.24 0.13
8 31 0.45 0.27
8 32 0.49 0.19
8 33 0.58 0.22
8 34 0.67 0.35
8 35 0.32 0.16
8 36 0.7 0.29
8 37 0.65 0.13
8 38 0.66 0.22
8 39 0.46 0.23
8 40 0.57 0.19
8 41 0.59 0.2
8 42 0.44 0.16
8 43 0.67 0.22
8 44 0.58 0.29
8 45 0.58 0.25
8 46 0.55 0.19
8 47 0.37 0.2
8 48 0.79 0.24
8 49 0.56 0.28
9 10 0.46 0.18
9 11 0.39 0.08
9 12 0.72 0.26
9 13 0.55 0.24
9 14 0.54 0.1
9 15 0.47 0.33
9 16 0.54 0.22
9 17 0.54 0.18
9 18 0.72 0.22
9 19 0.75 0.2
9 20 0.84 0.32
9 21 0.66 0.24
9 22 0.82 0.19
9 23 0.64 0.26
9 24 0.58 0.3
9 25 0.61 0.28
9 26 0.77 0.18
9 27 0.64 0.22
9 28 0.52 0.3
9 29 0.77 0.19
9 30 0.78 0.23
9 31 0.56 0.28
9 32 0.46 0.24
9 33 0.68 0.2
9 34 0.76 0.31
9 35 0.53 0.3
9 36 0.62 0.22
9 37 0.6 0.08
9 38 0.68 0.28
9 39 0.53 0.19
9 40 0.62 0.22
9 41 0.54 0.16
9 42 0.65 0.26
9 43 0.44 0.18
9 44 0.78 0.25
9 45 0.59 0.27
9 46 0.48 0.18
9 47 0.64 0.22
9 48 0.7 0.22
9 49 0.64 0.25
10 11 0.38 0.21
10 12 0.6 0.2
10 13 0.26 0.12
10 14 0.36 0.14
10 15 0.68 0.23
10 16 0.6 0.12
10 17 0.56 0.06
10 18 0.68 0.1
10 19 0.61 0.22
10 20 0.54 0.26
10 21 0.38 0.23
10 22 0.6 0.21
10 23 0.46 0.18
10 24 0.6 0.26
10 25 0.56 0.23
10 26 0.5 0.14
10 27 0.22 0.16
10 28 0.48 0.25
10 29 0.61 0.24
10 30 0.59 0.1
10 31 0.44 0.24
10 32 0.48 0.16
10 33 0.56 0.19
10 34 0.62 0.32
10 35 0.5 0.19
10 36 0.54 0.28
10 37 0.54 0.1
10 38 0.5 0.2
10 39 0.6 0.2
10 40 0.61 0.16
10 41 0.4 0.17
10 42 0.54 0.16
10 43 0.5 0.19
10 44 0.44 0.26
10 45 0.75 0.24
10 46 0.26 0.16
10 47 0.64 0.22
10 48 0.52 0.21
10 49 0.54 0.26
11 12 0.46 0.23
11 13 0.56 0.16
11 14 0.32 0.18
11 15 0.65 0.25
11 16 0.58 0.14
11 17 0.52 0.2
11 18 0.42 0.16
11 19 0.47 0.12
11 20 0.75 0.28
11 21 0.4 0.16
11 22 0.72 0.2
11 23 0.36 0.18
11 24 0.62 0.24
11 25 0.42 0.2
11 26 0.65 0.2
11 27 0.56 0.27
11 28 0.65 0.28
11 29 0.57 0.27
11 30 0.46 0.26
11 31 0.49 0.26
11 32 0.63 0.18
11 33 0.58 0.28
11 34 0.56 0.3
11 35 0.46 0.24
11 36 0.42 0.3
11 37 0.48 0.16
11 38 0.36 0.2
11 39 0.4 0.19
11 40 0.23 0.14
11 41 0.59 0.2
11 42 0.6 0.18
11 43 0.69 0.18
11 44 0.45 0.25
11 45 0.52 0.21
11 46 0.12 0.1
11 47 0.65 0.2
11 48 0.38 0.22
11 49 0.67 0.22
12 13 0.54 0.09
12 14 0.56 0.29
12 15 0.6 0.09
12 16 0.33 0.22
12 17 0.36 0.21
12 18 0.54 0.23
12 19 0.5 0.19
12 20 0.57 0.22
12 21 0.82 0.22
12 22 0.51 0.16
12 23 0.34 0.14
12 24 0.64 0.2
12 25 0.56 0.15
12 26 0.43 0.27
12 27 0.6 0.21
12 28 0.71 0.05
12 29 0.7 0.26
12 30 0.79 0.22
12 31 0.62 0.22
12 32 0.48 0.18
12 33 0.56 0.22
12 34 0.75 0.19
12 35 0.46 0.24
12 36 0.38 0.32
12 37 0.26 0.18
12 38 0.3 0.13
12 39 0.44 0.24
12 40 0.42 0.18
12 41 0.51 0.27
12 42 0.66 0.16
12 43 0.58 0.25
12 44 0.36 0.18
12 45 0.72 0.22
12 46 0.54 0.15
12 47 0.42 0.16
12 48 0.54 0.26
12 49 0.26 0.22
13 14 0.62 0.2
13 15 0.8 0.18
13 16 0.34 0.24
13 17 0.58 0.12
13 18 0.66 0.21
13 19 0.6 0.17
13 20 0.64 0.16
13 21 0.64 0.27
13 22 0.68 0.25
13 23 0.2 0.07
13 24 0.71 0.22
13 25 0.51 0.16
13 26 0.61 0.25
13 27 0.48 0.27
13 28 0.5 0.14
13 29 0.57 0.21
13 30 0.77 0.15
13 31 0.53 0.2
13 32 0.74 0.2
13 33 0.55 0.24
13 34 0.56 0.28
13 35 0.7 0.21
13 36 0.65 0.35
13 37 0.44 0.22
13 38 0.24 0.09
13 39 0.71 0.24
13 40 0.61 0.23
13 41 0.62 0.25
13 42 0.6 0.25
13 43 0.72 0.23
13 44 0.7 0.26
13 45 0.61 0.17
13 46 0.48 0.06
13 47 0.72 0.21
13 48 0.48 0.31
13 49 0.51 0.27
14 15 0.79 0.3
14 16 0.64 0.24
14 17 0.2 0.08
14 18 0.36 0.23
14 19 0.78 0.21
14 20 0.58 0.29
14 21 0.37 0.2
14 22 0.4 0.25
14 23 0.52 0.25
14 24 0.64 0.28
14 25 0.58 0.28
14 26 0.77 0.27
14 27 0.58 0.3
14 28 0.62 0.28
14 29 0.25 0.18
14 30 0.58 0.17
14 31 0.61 0.28
14 32 0.38 0.2
14 33 0.61 0.26
14 34 0.62 0.26
14 35 0.55 0.26
14 36 0.35 0.2
14 37 0.76 0.18
14 38 0.48 0.26
14 39 0.38 0.14
14 40 0.5 0.22
14 41 0.71 0.17
14 42 0.64 0.25
14 43 0.67 0.15
14 44 0.59 0.2
14 45 0.61 0.26
14 46 0.44 0.18
14 47 0.51 0.2
14 48 0.59 0.19
14 49 0.54 0.2
15 16 0.58 0.26
15 17 0.69 0.26
15 18 0.54 0.26
15 19 0.46 0.23
15 20 0.52 0.21
15 21 0.6 0.26
15 22 0.66 0.15
15 23 0.75 0.14
15 24 0.2 0.18
15 25 0.29 0.14
15 26 0.36 0.27
15 27 0.48 0.2
15 28 0.33 0.04
15 29 0.64 0.28
15 30 0.71 0.22
15 31 0.38 0.25
15 32 0.42 0.22
15 33 0.58 0.31
15 34 0.31 0.18
15 35 0.59 0.16
15 36 0.64 0.32
15 37 0.53 0.27
15 38 0.71 0.12
15 39 0.65 0.16
15 40 0.58 0.27
15 41 0.56 0.19
15 42 0.59 0.07
15 43 0.66 0.17
15 44 0.6 0.24
15 45 0.52 0.29
15 46 0.53 0.22
15 47 0.6 0.25
15 48 0.32 0.23
15 49 0.58 0.22
16 17 0.69 0.18
16 18 0.56 0.2
16 19 0.71 0.17
16 20 0.72 0.18
16 21 0.51 0.11
16 22 0.74 0.28
16 23 0.54 0.18
16 24 0.46 0.14
16 25 0.72 0.14
16 26 0.51 0.19
16 27 0.81 0.19
16 28 0.57 0.24
16 29 0.64 0.18
16 30 0.64 0.16
16 31 0.62 0.18
16 32 0.55 0.04
16 33 0.78 0.25
16 34 0.42 0.2
16 35 0.38 0.1
16 36 0.62 0.26
16 37 0.59 0.22
16 38 0.58 0.16
16 39 0.74 0.1
16 40 0.62 0.04
16 41 0.37 0.13
16 42 0.8 0.19
16 43 0.4 0.11
16 44 0.69 0.18
16 45 0.69 0.16
16 46 0.46 0.18
16 47 0.72 0.1
16 48 0.36 0.12
16 49 0.59 0.16
17 18 0.18 0.15
17 19 0.66 0.21
17 20 0.58 0.26
17 21 0.52 0.21
17 22 0.44 0.26
17 23 0.52 0.18
17 24 0.66 0.24
17 25 0.4 0.2
17 26 0.62 0.19
17 27 0.55 0.22
17 28 0.43 0.24
17 29 0.45 0.26
17 30 0.63 0.16
17 31 0.55 0.28
17 32 0.54 0.15
17 33 0.66 0.25
17 34 0.44 0.3
17 35 0.57 0.21
17 36 0.4 0.23
17 37 0.62 0.16
17 38 0.48 0.2
17 39 0.58 0.21
17 40 0.3 0.14
17 41 0.56 0.22
17 42 0.44 0.19
17 43 0.66 0.22
17 44 0.52 0.2
17 45 0.64 0.21
17 46 0.4 0.1
17 47 0.36 0.2
17 48 0.39 0.22
17 49 0.55 0.27
18 19 0.56 0.12
18 20 0.67 0.26
18 21 0.66 0.2
18 22 0.62 0.11
18 23 0.62 0.19
18 24 0.64 0.24
18 25 0.4 0.28
18 26 0.74 0.04
18 27 0.46 0.11
18 28 0.61 0.22
18 29 0.43 0.2
18 30 0.45 0.11
18 31 0.46 0.23
18 32 0.57 0.16
18 33 0.59 0.2
18 34 0.26 0.22
18 35 0.4 0.22
18 36 0.33 0.26
18 37 0.62 0.14
18 38 0.66 0.21
18 39 0.64 0.1
18 40 0.48 0.19
18 41 0.38 0.07
18 42 0.6 0.22
18 43 0.48 0.09
18 44 0.48 0.16
18 45 0.77 0.14
18 46 0.54 0.21
18 47 0.5 0.2
18 48 0.48 0.11
18 49 0.37 0.16
19 20 0.7 0.18
19 21 0.56 0.13
19 22 0.38 0.16
19 23 0.63 0.24
19 24 0.6 0.24
19 25 0.65 0.27
19 26 0.7 0.16
19 27 0.76 0.23
19 28 0.66 0.24
19 29 0.56 0.27
19 30 0.7 0.16
19 31 0.42 0.14
19 32 0.49 0.13
19 33 0.5 0.25
19 34 0.61 0.19
19 35 0.66 0.19
19 36 0.6 0.27
19 37 0.72 0.26
19 38 0.59 0.26
19 39 0.56 0.07
19 40 0.36 0.14
19 41 0.41 0.08
19 42 0.48 0.18
19 43 0.31 0.06
19 44 0.58 0.13
19 45 0.46 0.21
19 46 0.35 0.17
19 47 0.48 0.18
19 48 0.61 0.22
19 49 0.36 0.13
20 21 0.47 0.21
20 22 0.74 0.28
20 23 0.44 0.23
20 24 0.42 0.19
20 25 0.34 0.27
20 26 0.81 0.22
20 27 0.68 0.16
20 28 0.55 0.17
20 29 0.71 0.29
20 30 0.66 0.19
20 31 0.48 0.04
20 32 0.4 0.22
20 33 0.68 0.25
20 34 0.41 0.3
20 35 0.56 0.18
20 36 0.42 0.24
20 37 0.64 0.31
20 38 0.4 0.25
20 39 0.62 0.22
20 40 0.58 0.14
20 41 0.48 0.23
20 42 0.58 0.14
20 43 0.41 0.21
20 44 0.48 0.14
20 45 0.51 0.23
20 46 0.64 0.22
20 47 0.22 0.17
20 48 0.49 0.22
20 49 0.54 0.2
21 22 0.54 0.29
21 23 0.56 0.26
21 24 0.75 0.14
21 25 0.58 0.25
21 26 0.6 0.22
21 27 0.6 0.26
21 28 0.62 0.27
21 29 0.55 0.22
21 30 0.21 0.18
21 31 0.75 0.21
21 32 0.53 0.15
21 33 0.56 0.16
21 34 0.4 0.22
21 35 0.56 0.21
21 36 0.72 0.25
21 37 0.66 0.24
21 38 0.52 0.27
21 39 0.55 0.1
21 40 0.62 0.07
21 41 0.48 0.13
21 42 0.64 0.3
21 43 0.38 0.11
21 44 0.65 0.18
21 45 0.74 0.16
21 46 0.28 0.22
21 47 0.67 0.1
21 48 0.54 0.15
21 49 0.87 0.16
22 23 0.48 0.21
22 24 0.46 0.3
22 25 0.59 0.21
22 26 0.53 0.15
22 27 0.38 0.22
22 28 0.48 0.11
22 29 0.6 0.27
22 30 0.35 0.22
22 31 0.62 0.3
22 32 0.4 0.27
22 33 0.82 0.31
22 34 0.39 0.25
22 35 0.57 0.24
22 36 0.74 0.3
22 37 0.36 0.25
22 38 0.44 0.19
22 39 0.56 0.21
22 40 0.56 0.24
22 41 0.74 0.18
22 42 0.37 0.22
22 43 0.69 0.2
22 44 0.48 0.27
22 45 0.64 0.25
22 46 0.68 0.25
22 47 0.58 0.26
22 48 0.44 0.16
22 49 0.74 0.2
23 24 0.55 0.15
23 25 0.53 0.18
23 26 0.54 0.23
23 27 0.68 0.26
23 28 0.6 0.1
23 29 0.62 0.14
23 30 0.62 0.08
23 31 0.54 0.27
23 32 0.58 0.2
23 33 0.75 0.17
23 34 0.45 0.24
23 35 0.5 0.14
23 36 0.72 0.29
23 37 0.38 0.26
23 38 0.04 0.02
23 39 0.61 0.26
23 40 0.44 0.22
23 41 0.66 0.26
23 42 0.62 0.21
23 43 0.6 0.27
23 44 0.54 0.28
23 45 0.55 0.19
23 46 0.28 0.08
23 47 0.52 0.2
23 48 0.54 0.28
23 49 0.31 0.22
24 25 0.49 0.28
24 26 0.4 0.24
24 27 0.57 0.24
24 28 0.53 0.22
24 29 0.82 0.2
24 30 0.61 0.23
24 31 0.18 0.15
24 32 0.42 0.18
24 33 0.66 0.23
24 34 0.51 0.26
24 35 0.59 0.22
24 36 0.66 0.28
24 37 0.54 0.22
24 38 0.51 0.17
24 39 0.49 0.22
24 40 0.44 0.1
24 41 0.53 0.25
24 42 0.46 0.25
24 43 0.63 0.23
24 44 0.56 0.21
24 45 0.53 0.14
24 46 0.65 0.23
24 47 0.6 0.08
24 48 0.52 0.18
24 49 0.38 0.25
25 26 0.47 0.24
25 27 0.34 0.26
25 28 0.46 0.1
25 29 0.62 0.26
25 30 0.52 0.26
25 31 0.66 0.31
25 32 0.58 0.18
25 33 0.6 0.3
25 34 0.6 0.24
25 35 0.6 0.24
25 36 0.54 0.32
25 37 0.3 0.28
25 38 0.49 0.18
25 39 0.48 0.24
25 40 0.65 0.18
25 41 0.78 0.27
25 42 0.78 0.2
25 43 0.75 0.25
25 44 0.66 0.3
25 45 0.54 0.21
25 46 0.3 0.1
25 47 0.54 0.24
25 48 0.56 0.26
25 49 0.68 0.3
26 27 0.54 0.15
26 28 0.69 0.26
26 29 0.52 0.16
26 30 0.72 0.15
26 31 0.38 0.26
26 32 0.66 0.2
26 33 0.48 0.19
26 34 0.67 0.26
26 35 0.57 0.26
26 36 0.62 0.28
26 37 0.17 0.1
26 38 0.53 0.25
26 39 0.66 0.14
26 40 0.64 0.15
26 41 0.44 0.11
26 42 0.59 0.2
26 43 0.54 0.13
26 44 0.63 0.2
26 45 0.69 0.1
26 46 0.7 0.21
26 47 0.6 0.16
26 48 0.68 0.14
26 49 0.69 0.2
27 28 0.26 0.16
27 29 0.57 0.28
27 30 0.52 0.22
27 31 0.39 0.12
27 32 0.38 0.23
27 33 0.7 0.19
27 34 0.58 0.3
27 35 0.55 0.26
27 36 0.62 0.37
27 37 0.37 0.2
27 38 0.72 0.24
27 39 0.55 0.21
27 40 0.65 0.22
27 41 0.44 0.18
27 42 0.46 0.27
27 43 0.45 0.2
27 44 0.65 0.27
27 45 0.64 0.1
27 46 0.48 0.21
27 47 0.56 0.16
27 48 0.62 0.22
27 49 0.76 0.27
28 29 0.52 0.24
28 30 0.57 0.18
28 31 0.42 0.21
28 32 0.6 0.23
28 33 0.64 0.27
28 34 0.38 0.14
28 35 0.72 0.2
28 36 0.52 0.32
28 37 0.58 0.23
28 38 0.64 0.08
28 39 0.53 0.2
28 40 0.5 0.23
28 41 0.7 0.23
28 42 0.72 0.11
28 43 0.71 0.21
28 44 0.53 0.23
28 45 0.67 0.26
28 46 0.53 0.18
28 47 0.77 0.21
28 48 0.65 0.27
28 49 0.77 0.26
29 30 0.59 0.22
29 31 0.65 0.29
29 32 0.4 0.14
29 33 0.7 0.18
29 34 0.5 0.28
29 35 0.57 0.2
29 36 0.6 0.31
29 37 0.69 0.14
29 38 0.66 0.16
29 39 0.59 0.2
29 40 0.5 0.18
29 41 0.66 0.23
29 42 0.89 0.25
29 43 0.69 0.21
29 44 0.34 0.22
29 45 0.7 0.18
29 46 0.69 0.22
29 47 0.58 0.12
29 48 0.76 0.26
29 49 0.71 0.26
30 31 0.63 0.23
30 32 0.32 0.12
30 33 0.5 0.09
30 34 0.48 0.3
30 35 0.49 0.18
30 36 0.76 0.21
30 37 0.71 0.2
30 38 0.58 0.1
30 39 0.54 0.18
30 40 0.69 0.2
30 41 0.47 0.18
30 42 0.68 0.26
30 43 0.57 0.19
30 44 0.5 0.21
30 45 0.73 0.18
30 46 0.49 0.16
30 47 0.46 0.2
30 48 0.72 0.22
30 49 0.7 0.24
31 32 0.6 0.2
31 33 0.48 0.22
31 34 0.6 0.3
31 35 0.68 0.14
31 36 0.54 0.28
31 37 0.36 0.32
31 38 0.58 0.26
31 39 0.31 0.21
31 40 0.26 0.14
31 41 0.48 0.22
31 42 0.49 0.18
31 43 0.58 0.2
31 44 0.46 0.17
31 45 0.54 0.22
31 46 0.47 0.26
31 47 0.56 0.2
31 48 0.52 0.22
31 49 0.51 0.24
32 33 0.57 0.21
32 34 0.48 0.18
32 35 0.17 0.06
32 36 0.7 0.22
32 37 0.64 0.25
32 38 0.58 0.18
32 39 0.56 0.06
32 40 0.51 0.08
32 41 0.34 0.09
32 42 0.58 0.15
32 43 0.44 0.07
32 44 0.47 0.14
32 45 0.57 0.17
32 46 0.51 0.14
32 47 0.18 0.11
32 48 0.7 0.16
32 49 0.46 0.12
33 34 0.43 0.33
33 35 0.4 0.27
33 36 0.26 0.22
33 37 0.52 0.12
33 38 0.72 0.19
33 39 0.6 0.21
33 40 0.58 0.21
33 41 0.7 0.22
33 42 0.76 0.28
33 43 0.62 0.2
33 44 0.36 0.25
33 45 0.52 0.09
33 46 0.48 0.2
33 47 0.74 0.15
33 48 0.7 0.29
33 49 0.58 0.27
34 35 0.56 0.24
34 36 0.59 0.28
34 37 0.75 0.36
34 38 0.49 0.22
34 39 0.62 0.12
34 40 0.74 0.16
34 41 0.43 0.15
34 42 0.5 0.25
34 43 0.53 0.13
34 44 0.63 0.2
34 45 0.56 0.28
34 46 0.44 0.26
34 47 0.63 0.22
34 48 0.58 0.24
34 49 0.63 0.18
35 36 0.57 0.16
35 37 0.72 0.28
35 38 0.46 0.12
35 39 0.46 0.12
35 40 0.42 0.14
35 41 0.51 0.15
35 42 0.45 0.09
35 43 0.56 0.13
35 44 0.52 0.2
35 45 0.56 0.2
35 46 0.34 0.2
35 47 0.34 0.14
35 48 0.6 0.22
35 49 0.36 0.18
36 37 0.64 0.18
36 38 0.68 0.28
36 39 0.69 0.22
36 40 0.36 0.23
36 41 0.6 0.23
36 42 0.78 0.25
36 43 0.5 0.21
36 44 0.58 0.14
36 45 0.58 0.3
36 46 0.48 0.3
36 47 0.52 0.24
36 48 0.6 0.31
36 49 0.64 0.28
37 38 0.41 0.28
37 39 0.67 0.24
37 40 0.49 0.2
37 41 0.55 0.21
37 42 0.6 0.26
37 43 0.48 0.23
37 44 0.46 0.3
37 45 0.57 0.2
37 46 0.6 0.18
37 47 0.68 0.14
37 48 0.65 0.24
37 49 0.52 0.3
38 39 0.57 0.24
38 40 0.4 0.2
38 41 0.7 0.27
38 42 0.62 0.19
38 43 0.64 0.25
38 44 0.56 0.3
38 45 0.52 0.21
38 46 0.24 0.1
38 47 0.48 0.22
38 48 0.5 0.26
38 49 0.35 0.24
39 40 0.57 0.14
39 41 0.6 0.03
39 42 0.71 0.21
39 43 0.63 0.01
39 44 0.63 0.08
39 45 0.58 0.16
39 46 0.52 0.2
39 47 0.4 0.17
39 48 0.43 0.2
39 49 0.68 0.06
40 41 0.74 0.17
40 42 0.54 0.23
40 43 0.64 0.15
40 44 0.22 0.14
40 45 0.34 0.12
40 46 0.35 0.22
40 47 0.42 0.06
40 48 0.26 0.08
40 49 0.5 0.2
41 42 0.66 0.24
41 43 0.1 0.02
41 44 0.52 0.09
41 45 0.43 0.13
41 46 0.66 0.23
41 47 0.52 0.18
41 48 0.69 0.18
41 49 0.67 0.09
42 43 0.56 0.22
42 44 0.76 0.23
42 45 0.69 0.22
42 46 0.56 0.27
42 47 0.4 0.23
42 48 0.6 0.16
42 49 0.81 0.27
43 44 0.42 0.07
43 45 0.53 0.15
43 46 0.66 0.21
43 47 0.62 0.18
43 48 0.74 0.2
43 49 0.67 0.07
44 45 0.36 0.22
44 46 0.46 0.2
44 47 0.47 0.17
44 48 0.48 0.22
44 49 0.54 0.14
45 46 0.64 0.11
45 47 0.39 0.06
45 48 0.6 0.2
45 49 0.46 0.22
46 47 0.68 0.17
46 48 0.26 0.26
46 49 0.59 0.26
47 48 0.68 0.14
47 49 0.58 0.23
48 49 0.52 0.2
